SAT
3 5 -74 -23 -43 -46 4 52 24 6 49 37 -22 36 34 -39 -61 44 -66 60 2 -12 68 -13 41 -10 -14 32 19 -31 7 -51 -27 -16 -38 25 69 53 67 -63 -35 -15 -1 -72 47 -9 71 -20 28 -29 30 8 -70 18 50 -11 73 26 58 45 75 59 33 56 -62 54 17 40 42 55 57 64 21 -48 -65 0
